This is Ipopt version 3.10.1, running with linear solver mumps.

Number of nonzeros in equality constraint Jacobian...:      177
Number of nonzeros in inequality constraint Jacobian.:        0
Number of nonzeros in Lagrangian Hessian.............:     3324

Total number of variables............................:       90
                     variables with only lower bounds:        0
                variables with lower and upper bounds:       90
                     variables with only upper bounds:        0
Total number of equality constraints.................:       59
Total number of inequality constraints...............:        0
        inequality constraints with only lower bounds:        0
   inequality constraints with lower and upper bounds:        0
        inequality constraints with only upper bounds:        0

iter    objective    inf_pr   inf_du lg(mu)  ||d||  lg(rg) alpha_du alpha_pr  ls
   0 -4.9689963e-04 2.51e-12 2.94e-04  -1.0 0.00e+00    -  0.00e+00 0.00e+00   0
   1 -4.7899847e-04 2.22e-16 2.68e-04  -1.7 1.86e-02    -  9.95e-01 1.00e+00f  1
   2 -4.5014286e-04 9.52e-11 6.40e-06  -2.5 4.22e-02    -  1.00e+00 1.00e+00f  1
   3 -4.5743051e-04 4.44e-16 1.99e-06  -3.8 1.73e-02    -  1.00e+00 1.00e+00f  1
   4 -2.9179092e-04 4.44e-16 2.66e-03  -5.7 2.10e+00    -  1.18e-01 1.90e-01h  1
   5 -2.8618601e-04 4.44e-16 2.76e-03  -5.7 2.56e-01  -4.0 5.02e-01 6.53e-03f  8
   6 -2.8599429e-04 4.44e-16 2.77e-03  -5.7 1.49e-01  -3.6 5.49e-01 4.88e-04f 12
   7 -2.8599409e-04 4.44e-16 2.77e-03  -5.7 1.24e-01  -3.1 6.86e-01 4.77e-07f 22
   8 -5.5454618e-04 8.88e-16 3.55e-03  -5.7 1.19e+01  -2.7 1.43e-02 5.00e-02f  1
   9 -2.3118562e-03 8.67e-13 4.51e-03  -5.7 2.58e-01  -2.3 5.52e-01 4.81e-01f  1
iter    objective    inf_pr   inf_du lg(mu)  ||d||  lg(rg) alpha_du alpha_pr  ls
  10 -2.6299849e-03 1.36e-13 3.43e-03  -5.7 2.72e-02  -1.0 9.96e-01 8.44e-01f  1
  11 -5.7670385e-03 2.62e-14 5.13e-03  -5.7 9.38e-02  -1.4 1.00e+00 8.06e-01f  1
  12 -5.7593291e-03 2.62e-14 5.12e-03  -5.7 1.64e-01  -1.9 5.11e-02 9.77e-04f 11
  13 -5.7493415e-03 2.58e-14 2.29e-02  -5.7 9.46e-01  -1.5 3.18e-01 1.84e-02f  3
  14 -6.6321880e-03 1.13e-14 1.38e-02  -5.7 6.11e-01  -2.0 1.30e-01 5.63e-01h  1
  15 -6.6218582e-03 1.11e-14 2.58e-02  -5.7 2.67e-01  -0.6 1.91e-01 1.37e-02f  5
  16 -7.3747771e-03 1.02e-14 1.16e-02  -5.7 1.27e-01  -1.1 1.00e+00 8.01e-02f  1
  17 -8.4074624e-03 5.55e-15 9.00e-03  -5.7 2.86e-02  -0.7 1.00e+00 4.59e-01f  1
  18 -9.7196711e-03 5.11e-15 2.42e-02  -5.7 2.42e-01  -1.2 1.00e+00 6.46e-02f  1
  19 -9.7184104e-03 5.11e-15 1.53e-02  -5.7 2.51e-01  -1.6 1.67e-01 6.59e-05f 14
iter    objective    inf_pr   inf_du lg(mu)  ||d||  lg(rg) alpha_du alpha_pr  ls
  20 -1.2763084e-02 1.07e-12 1.72e-02  -5.7 4.86e-01  -1.2 1.48e-01 6.71e-02f  1
  21 -1.3293974e-02 1.72e-12 5.25e-02  -5.7 9.00e-02  -0.8 8.87e-01 8.82e-02f  1
  22 -1.3289971e-02 1.72e-12 4.95e-02  -5.7 7.23e-01  -1.3 1.81e-02 4.38e-05f 15
  23 -1.4870070e-02 1.48e-12 1.93e-02  -5.7 9.73e-02  -0.8 1.00e+00 1.36e-01f  1
  24 -1.5066490e-02 1.36e-12 2.86e-02  -5.7 2.24e-02  -0.4 1.00e+00 8.61e-02f  1
  25 -1.7220348e-02 2.02e-12 2.35e-02  -5.7 9.81e-02  -0.9 1.00e+00 1.83e-01f  1
  26 -6.1143489e-03 1.74e-12 3.77e-02  -5.7 1.44e+00  -1.4 1.73e-02 1.37e-01h  1
  27 -6.1052693e-03 1.74e-12 3.73e-02  -5.7 6.23e-01  -1.9 1.04e-02 7.79e-04f  9
  28 -6.2715397e-03 1.72e-12 2.51e-02  -5.7 2.63e-01  -1.4 1.00e+00 3.31e-02f  1
  29 -7.5518846e-03 1.95e-12 5.39e-03  -5.7 3.45e-02  -1.0 9.20e-01 7.87e-01F  1
iter    objective    inf_pr   inf_du lg(mu)  ||d||  lg(rg) alpha_du alpha_pr  ls
  30 -1.0955725e-02 1.18e-12 9.42e-03  -5.7 1.68e-01  -1.5 1.00e+00 3.92e-01f  1
  31 -1.5542832e-02 6.66e-16 6.43e-03  -5.7 6.22e-02  -1.1 1.00e+00 1.00e+00f  1
  32 -1.8248826e-02 2.06e-12 6.69e-03  -5.7 2.72e-02  -0.6 1.00e+00 1.00e+00f  1
  33 -2.3163218e-02 4.34e-12 2.57e-02  -5.7 1.66e-01  -1.1 1.00e+00 2.41e-01f  1
  34 -2.4148024e-02 3.60e-12 1.96e-02  -5.7 5.41e-02  -0.7 2.85e-01 1.71e-01f  1
  35 -2.9857113e-02 2.97e-12 2.96e-02  -5.7 3.02e-01  -1.2 4.87e-01 1.75e-01f  1
  36 -3.1955204e-02 2.38e-12 2.01e-02  -5.7 7.77e-02  -0.7 1.00e+00 1.99e-01f  1
  37 -3.3909820e-02 3.42e-12 3.49e-02  -5.7 3.59e-01  -1.2 3.28e-01 5.47e-02f  1
  38 -3.4916458e-02 2.71e-12 2.88e-02  -5.7 6.46e-02  -0.8 1.20e-01 2.08e-01f  1
  39 -3.5524200e-02 2.89e-12 4.39e-02  -5.7 2.76e-01  -1.3 1.00e+00 3.68e-02f  1
iter    objective    inf_pr   inf_du lg(mu)  ||d||  lg(rg) alpha_du alpha_pr  ls
  40 -3.9599657e-02 5.39e-12 1.65e-02  -5.7 6.81e-02  -0.8 3.09e-01 1.00e+00f  1
  41 -4.1245588e-02 5.03e-12 2.41e-02  -5.7 4.30e-01  -1.3 3.25e-01 6.61e-02f  1
  42 -4.2752996e-02 4.24e-12 1.07e-02  -5.7 4.50e-02  -0.9 1.00e+00 6.52e-01f  1
  43 -4.6209716e-02 5.00e-12 2.55e-02  -5.7 1.89e-01  -1.4 9.16e-01 2.35e-01f  1
  44 -5.1660980e-02 1.71e-13 6.63e-03  -5.7 5.20e-02  -0.9 1.00e+00 9.66e-01f  1
  45 -5.4445636e-02 2.00e-12 6.21e-03  -5.7 2.04e-02  -0.5 9.74e-01 9.00e-01f  1
  46 -5.8351261e-02 1.52e-12 3.04e-02  -5.7 1.04e-01  -1.0 1.00e+00 2.43e-01f  1
  47 -5.8752836e-02 1.75e-12 2.09e-02  -5.7 2.99e-02  -0.6 1.00e+00 7.86e-02f  1
  48 -6.4680001e-02 1.31e-12 1.95e-02  -5.7 1.52e-01  -1.0 5.45e-01 2.51e-01f  1
  49 -7.0007049e-02 1.76e-13 9.91e-03  -5.7 4.04e-02  -0.6 1.00e+00 8.66e-01f  1
iter    objective    inf_pr   inf_du lg(mu)  ||d||  lg(rg) alpha_du alpha_pr  ls
  50 -9.0274268e-02 1.20e-11 2.80e-02  -5.7 2.08e-01  -1.1 1.67e-01 4.87e-01f  1
  51 -9.1451291e-02 1.08e-11 2.50e-02  -5.7 7.05e-02  -0.7 2.54e-01 9.84e-02f  1
  52 -9.5881784e-02 6.00e-12 1.81e-02  -5.7 3.09e-02  -0.2 3.46e-01 7.25e-01f  1
  53 -1.0256212e-01 4.38e-12 2.14e-02  -5.7 1.40e-01  -0.7 1.26e-01 2.69e-01f  1
  54 -1.0374998e-01 4.20e-12 2.18e-02  -5.7 4.81e-02  -0.3 4.04e-01 1.28e-01f  1
  55 -1.1804868e-01 3.00e-12 3.22e-02  -5.7 2.63e-01  -0.8 1.99e-01 2.86e-01f  1
  56 -1.3003130e-01 1.06e-12 3.70e-02  -5.7 8.01e-02  -0.3 1.00e+00 6.46e-01f  1
  57 -1.5117683e-01 1.05e-12 5.35e-02  -5.7 8.80e+00  -0.8 5.96e-03 8.15e-03f  1
  58 -1.5218628e-01 2.05e-11 6.87e-02  -5.7 6.75e-02  -0.4 7.73e-03 5.75e-02f  1
  59 -1.5321372e-01 1.92e-11 6.48e-02  -5.7 3.98e-02   0.0 1.67e-01 6.24e-02f  1
iter    objective    inf_pr   inf_du lg(mu)  ||d||  lg(rg) alpha_du alpha_pr  ls
  60 -1.6433295e-01 1.34e-11 9.16e-02  -5.7 9.13e-02  -0.4 1.00e-01 3.03e-01f  1
  61 -1.6433102e-01 1.34e-11 9.17e-02  -5.7 1.14e+00  -0.9 1.10e-04 4.38e-06f 12
  62 -1.6432425e-01 1.34e-11 2.57e-01  -5.7 1.01e+01  -0.5 1.65e-02 4.24e-06f 10
  63 -1.6804288e-01 9.72e-12 1.56e-01  -5.7 3.50e-02  -0.1 4.55e-01 2.75e-01f  1
  64 -1.7029336e-01 9.33e-12 1.50e-01  -5.7 1.52e-01  -0.5 6.12e-02 3.67e-02f  1
  65 -1.7028983e-01 9.33e-12 9.95e-02  -5.7 4.06e-01  -1.0 1.63e-01 2.25e-05f 11
  66 -1.7038168e-01 9.31e-12 9.88e-02  -5.7 1.11e+00    -  5.09e-03 1.58e-03f  1
  67 -1.7288070e-01 8.08e-12 1.43e-01  -5.7 7.26e-01    -  1.61e-02 1.32e-01f  1
  68 -1.7570505e-01 7.77e-12 1.26e-01  -5.7 1.89e-01  -0.6 8.77e-02 3.84e-02f  1
  69 -1.7570076e-01 7.77e-12 1.45e-01  -5.7 2.35e-01  -1.1 1.93e-01 5.00e-05f 12
iter    objective    inf_pr   inf_du lg(mu)  ||d||  lg(rg) alpha_du alpha_pr  ls
  70 -1.7853743e-01 7.76e-12 1.35e-01  -5.7 3.44e-01  -0.6 3.93e-02 1.89e-02f  1
  71 -1.7852934e-01 7.76e-12 1.36e-01  -5.7 1.93e-01  -1.1 1.55e-03 1.03e-04f 11
  72 -1.7853487e-01 7.76e-12 1.04e-01  -5.7 6.99e-01  -0.7 4.89e-02 1.81e-05f  2
  73 -1.6597510e-01 6.21e-12 8.26e-02  -5.7 2.03e-01  -1.2 1.65e-01 2.00e-01h  1
  74 -1.6597196e-01 6.19e-12 8.29e-02  -5.7 2.82e-01    -  1.99e-04 2.61e-03f  1
  75 -1.6596259e-01 6.19e-12 1.91e-01  -5.7 2.62e-01  -1.6 9.15e-01 2.92e-04f  2
  76 -1.7287261e-01 3.56e-12 1.63e-01  -5.7 3.51e-02  -0.3 1.90e-01 7.80e-01F  1
  77 -1.7286464e-01 3.56e-12 1.17e-01  -5.7 1.74e-01    -  3.08e-01 3.41e-04f  8
  78 -1.6930366e-01 2.97e-12 1.08e-01  -5.7 1.88e-01    -  7.05e-02 1.64e-01h  1
  79 -1.7010262e-01 2.73e-12 1.27e-01  -5.7 4.38e-01    -  3.54e-03 8.11e-02f  1
iter    objective    inf_pr   inf_du lg(mu)  ||d||  lg(rg) alpha_du alpha_pr  ls
  80 -1.8674408e-01 2.37e-12 1.54e-01  -5.7 3.73e-01  -0.8 1.43e-02 1.34e-01f  1
  81 -1.9113799e-01 4.97e-12 1.41e-01  -5.7 8.71e-02  -0.4 8.61e-02 1.07e-01f  1
  82 -1.9113404e-01 4.97e-12 1.42e-01  -5.7 1.20e+00  -0.8 7.00e-05 7.84e-06f 13
  83 -1.9112622e-01 4.98e-12 1.60e-01  -5.7 3.16e+00  -0.4 1.84e-02 1.48e-05f  9
  84 -1.9112320e-01 4.98e-12 1.62e-01  -5.7 4.89e-01  -0.9 1.46e-01 4.69e-05f 10
  85 -2.2275863e-01 2.58e-12 1.01e-01  -5.7 1.27e-01  -0.5 4.35e-01 4.81e-01f  1
  86 -2.4760580e-01 5.91e-13 4.61e-02  -5.7 4.75e-02  -0.0 1.00e+00 7.71e-01f  1
  87 -2.9440581e-01 2.88e-11 1.98e-01  -5.7 5.07e-01  -0.5 3.99e-01 1.05e-01f  1
  88 -3.1682027e-01 3.33e-11 1.67e-01  -5.7 5.21e-01  -1.0 2.41e-01 8.24e-02f  1
  89 -3.1681877e-01 3.33e-11 1.67e-01  -5.7 1.48e+00    -  3.09e-05 1.82e-06f 18
iter    objective    inf_pr   inf_du lg(mu)  ||d||  lg(rg) alpha_du alpha_pr  ls
  90 -3.3904399e-01 3.25e-11 3.62e-01  -5.7 1.82e+00  -1.5 1.92e-05 2.55e-02f  1
  91 -3.5850448e-01 2.79e-11 3.10e-01  -5.7 1.00e+00  -2.0 9.47e-03 1.40e-01f  1
  92 -3.5849924e-01 2.79e-11 3.10e-01  -5.7 1.91e-01  -2.4 5.73e-01 5.55e-05f 15
  93 -3.3213600e-01 9.06e-12 9.96e-02  -5.7 1.20e-01  -2.9 9.81e-01 6.76e-01h  1
  94 -3.3212896e-01 9.02e-12 2.43e-01  -5.7 3.50e-02    -  5.25e-01 4.63e-03f  7
  95 -3.3212552e-01 9.00e-12 1.18e-01  -5.7 3.50e-02  -3.4 2.47e-01 2.24e-03f  7
  96 -3.3148740e-01 2.75e-12 5.86e-02  -5.7 3.48e-02    -  6.05e-01 6.95e-01h  1
  97 -3.3158939e-01 2.22e-16 1.33e-03  -5.7 2.35e-03  -0.3 1.00e+00 1.00e+00f  1
  98 -3.3158220e-01 2.22e-16 4.13e-02  -5.7 9.35e-03    -  1.00e+00 3.12e-02h  6
  99 -3.3225380e-01 1.45e-11 2.16e-03  -5.7 1.02e-02  -0.7 1.00e+00 1.00e+00f  1
iter    objective    inf_pr   inf_du lg(mu)  ||d||  lg(rg) alpha_du alpha_pr  ls
 100 -3.3180405e-01 1.23e-11 1.69e-02  -5.7 4.17e-02  -1.2 1.00e+00 1.54e-01h  3
 101 -3.3165892e-01 9.20e-12 4.31e-03  -5.7 1.24e-02    -  1.00e+00 2.50e-01h  3
 102 -3.3151107e-01 2.22e-16 6.57e-04  -5.7 1.16e-02  -1.7 1.00e+00 1.00e+00h  1
 103 -3.3151025e-01 2.22e-16 1.08e-03  -5.7 1.82e-03    -  1.00e+00 3.12e-02h  6
 104 -3.3149142e-01 5.66e-15 1.69e-05  -5.7 1.92e-03    -  1.00e+00 1.00e+00s 22
 105 -3.3156318e-01 2.22e-16 9.30e-05  -8.6 1.29e-03    -  8.79e-01 9.98e-01f  1
 106 -3.3156318e-01 2.22e-16 1.21e-06  -8.6 1.65e-04  -2.2 1.00e+00 1.00e+00f  1
 107 -3.3156318e-01 2.22e-16 1.73e-03  -8.6 1.01e-05    -  1.00e+00 3.91e-03h  9
 108 -3.3156318e-01 2.22e-16 8.76e-04  -8.6 1.00e-05    -  1.00e+00 5.00e-01h  2
 109 -3.3156318e-01 2.22e-16 4.38e-04  -8.6 5.02e-06    -  1.00e+00 5.00e-01h  2
iter    objective    inf_pr   inf_du lg(mu)  ||d||  lg(rg) alpha_du alpha_pr  ls
 110 -3.3156318e-01 2.22e-16 4.38e-04  -8.6 2.51e-06    -  1.00e+00 1.91e-06h 20
 111 -3.3156318e-01 2.22e-16 5.89e-09  -8.6 2.56e-06  -2.6 1.00e+00 1.00e+00h  1

Number of Iterations....: 111

                                   (scaled)                 (unscaled)
Objective...............:  -3.3156318126994283e-01   -3.3156318126994283e-01
Dual infeasibility......:   5.8925924011583384e-09    5.8925924011583384e-09
Constraint violation....:   2.2204460492503131e-16    2.2204460492503131e-16
Complementarity.........:   2.5059035620169955e-09    2.5059035620169955e-09
Overall NLP error.......:   5.8925924011583384e-09    5.8925924011583384e-09


Number of objective function evaluations             = 412
Number of objective gradient evaluations             = 112
Number of equality constraint evaluations            = 412
Number of inequality constraint evaluations          = 0
Number of equality constraint Jacobian evaluations   = 1
Number of inequality constraint Jacobian evaluations = 0
Number of Lagrangian Hessian evaluations             = 111
Total CPU secs in IPOPT (w/o function evaluations)   =      0.260
Total CPU secs in NLP function evaluations           =      4.040

EXIT: Optimal Solution Found.
